(set-info :smt-lib-version 2.6)
(set-info :category "crafted")
(set-logic QF_FFA)
(define-sort FF0 () (_ FiniteField 52435875175126190479447740508185965837690552500527637822603658699938581184513))
(declare-fun return_n15_alt () FF0)
(declare-fun x10_n3_alt () FF0)
(declare-fun x3_n6_alt () FF0)
(declare-fun x5_n9_alt () FF0)
(declare-fun x7_n12_alt () FF0)
(declare-fun x8_n1_alt () FF0)
(declare-fun x0_n4_alt () FF0)
(declare-fun x13_n7_alt () FF0)
(declare-fun x11_n10_alt () FF0)
(declare-fun x15_n13_alt () FF0)
(declare-fun x2_n16_alt () FF0)
(declare-fun x4_n2_alt () FF0)
(declare-fun x14_n5_alt () FF0)
(declare-fun x9_n8_alt () FF0)
(declare-fun x1_n11_alt () FF0)
(declare-fun x6_n14_alt () FF0)
(declare-fun x12_n0_alt () FF0)
(declare-fun is_zero_inv_n17_alt () FF0)
(declare-fun return_n15 () FF0)
(declare-fun x10_n3 () FF0)
(declare-fun x3_n6 () FF0)
(declare-fun x5_n9 () FF0)
(declare-fun x7_n12 () FF0)
(declare-fun x8_n1 () FF0)
(declare-fun x0_n4 () FF0)
(declare-fun x13_n7 () FF0)
(declare-fun x11_n10 () FF0)
(declare-fun x15_n13 () FF0)
(declare-fun x2_n16 () FF0)
(declare-fun x4_n2 () FF0)
(declare-fun x14_n5 () FF0)
(declare-fun x9_n8 () FF0)
(declare-fun x1_n11 () FF0)
(declare-fun x6_n14 () FF0)
(declare-fun x12_n0 () FF0)
(declare-fun is_zero_inv_n17 () FF0)
(assert 
  (let ((let0 return_n15_alt))
  (let ((let1 x10_n3_alt))
  (let ((let2 x3_n6_alt))
  (let ((let3 x5_n9_alt))
  (let ((let4 x7_n12_alt))
  (let ((let5 x8_n1_alt))
  (let ((let6 x0_n4_alt))
  (let ((let7 x13_n7_alt))
  (let ((let8 x11_n10_alt))
  (let ((let9 x15_n13_alt))
  (let ((let10 x2_n16_alt))
  (let ((let11 x4_n2_alt))
  (let ((let12 x14_n5_alt))
  (let ((let13 x9_n8_alt))
  (let ((let14 x1_n11_alt))
  (let ((let15 x6_n14_alt))
  (let ((let16 x12_n0_alt))
  (let ((let17 (ff.add let16 let15 let14 let13 let12 let11 let10 let9 let8 let7 let6 let5 let4 let3 let2 let1)))
  (let ((let18 is_zero_inv_n17_alt))
  (let ((let19 (ff.mul let18 let17)))
  (let ((let20 (= let19 let0)))
  (let ((let21 return_n15))
  (let ((let22 x10_n3))
  (let ((let23 x3_n6))
  (let ((let24 x5_n9))
  (let ((let25 x7_n12))
  (let ((let26 x8_n1))
  (let ((let27 x0_n4))
  (let ((let28 x13_n7))
  (let ((let29 x11_n10))
  (let ((let30 x15_n13))
  (let ((let31 x2_n16))
  (let ((let32 x4_n2))
  (let ((let33 x14_n5))
  (let ((let34 x9_n8))
  (let ((let35 x1_n11))
  (let ((let36 x6_n14))
  (let ((let37 x12_n0))
  (let ((let38 (ff.add let37 let36 let35 let34 let33 let32 let31 let30 let29 let28 let27 let26 let25 let24 let23 let22)))
  (let ((let39 is_zero_inv_n17))
  (let ((let40 (ff.mul let39 let38)))
  (let ((let41 (= let40 let21)))
  (let ((let42 (= let21 let0)))
  (let ((let43 (not let42)))
  (let ((let44 (= let27 let6)))
  (let ((let45 (= let32 let11)))
  (let ((let46 (= let22 let1)))
  (let ((let47 (= let25 let4)))
  (let ((let48 (= let36 let15)))
  (let ((let49 (= let35 let14)))
  (let ((let50 (= let23 let2)))
  (let ((let51 (= let31 let10)))
  (let ((let52 (= let34 let13)))
  (let ((let53 (= let37 let16)))
  (let ((let54 (= let30 let9)))
  (let ((let55 (= let29 let8)))
  (let ((let56 (= let28 let7)))
  (let ((let57 (= let26 let5)))
  (let ((let58 (= let24 let3)))
  (let ((let59 (= let33 let12)))
  (let ((let60 (and let59 let58 let57 let56 let55 let54 let53 let52 let51 let50 let49 let48 let47 let46 let45 let44)))
  (let ((let61 (and let60 let43 let41 let20)))
  let61
))))))))))))))))))))))))))))))))))))))))))))))))))))))))))))))
)
(check-sat)
